c Generated map
c Size: 30 * 30, weights in range: 1 to 10, walls: True, with ratio 0.1
c dim 2 of 3
c
p sp 900 1411
c graph contains 900 nodes and 1411 arcs
c
a 1 31 2
a 31 1 2
a 1 2 10
a 2 1 10
a 2 32 6
a 32 2 6
a 2 3 9
a 3 2 9
a 3 33 8
a 33 3 8
a 3 4 6
a 4 3 6
a 4 34 10
a 34 4 10
a 4 5 4
a 5 4 4
a 5 35 9
a 35 5 9
a 5 6 2
a 6 5 2
a 6 36 5
a 36 6 5
a 6 7 3
a 7 6 3
a 7 8 6
a 8 7 6
a 8 38 3
a 38 8 3
a 8 9 6
a 9 8 6
a 9 39 7
a 39 9 7
a 9 10 9
a 10 9 9
a 10 40 6
a 40 10 6
a 10 11 4
a 11 10 4
a 11 41 4
a 41 11 4
a 11 12 7
a 12 11 7
a 12 42 8
a 42 12 8
a 12 13 6
a 13 12 6
a 13 43 5
a 43 13 5
a 13 14 9
a 14 13 9
a 14 44 8
a 44 14 8
a 14 15 9
a 15 14 9
a 15 45 4
a 45 15 4
a 15 16 9
a 16 15 9
a 16 46 8
a 46 16 8
a 16 17 8
a 17 16 8
a 17 18 3
a 18 17 3
a 18 48 3
a 48 18 3
a 18 19 5
a 19 18 5
a 19 49 8
a 49 19 8
a 19 20 9
a 20 19 9
a 20 50 6
a 50 20 6
a 20 21 4
a 21 20 4
a 21 22 3
a 22 21 3
a 22 52 7
a 52 22 7
a 22 23 7
a 23 22 7
a 23 24 7
a 24 23 7
a 24 54 3
a 54 24 3
a 24 25 2
a 25 24 2
a 25 55 6
a 55 25 6
a 25 26 9
a 26 25 9
a 26 56 2
a 56 26 2
a 26 27 4
a 27 26 4
a 27 57 6
a 57 27 6
a 27 28 9
a 28 27 9
a 28 58 10
a 58 28 10
a 28 29 1
a 29 28 1
a 29 59 5
a 59 29 5
a 29 30 3
a 30 29 3
a 30 60 3
a 60 30 3
a 31 61 5
a 61 31 5
a 31 32 9
a 32 31 9
a 32 62 5
a 62 32 5
a 32 33 10
a 33 32 10
a 33 63 7
a 63 33 7
a 33 34 3
a 34 33 3
a 34 64 6
a 64 34 6
a 34 35 7
a 35 34 7
a 35 65 10
a 65 35 10
a 35 36 6
a 36 35 6
a 36 66 2
a 66 36 2
a 38 68 1
a 68 38 1
a 38 39 10
a 39 38 10
a 39 69 6
a 69 39 6
a 39 40 4
a 40 39 4
a 40 70 10
a 70 40 10
a 40 41 4
a 41 40 4
a 41 71 2
a 71 41 2
a 41 42 3
a 42 41 3
a 42 72 4
a 72 42 4
a 42 43 3
a 43 42 3
a 43 73 4
a 73 43 4
a 43 44 10
a 44 43 10
a 44 74 10
a 74 44 10
a 44 45 5
a 45 44 5
a 45 75 7
a 75 45 7
a 45 46 2
a 46 45 2
a 48 78 5
a 78 48 5
a 48 49 9
a 49 48 9
a 49 79 8
a 79 49 8
a 49 50 10
a 50 49 10
a 50 80 5
a 80 50 5
a 52 82 7
a 82 52 7
a 54 84 10
a 84 54 10
a 54 55 2
a 55 54 2
a 55 85 7
a 85 55 7
a 55 56 8
a 56 55 8
a 56 86 2
a 86 56 2
a 56 57 4
a 57 56 4
a 57 87 6
a 87 57 6
a 57 58 9
a 58 57 9
a 58 88 4
a 88 58 4
a 58 59 2
a 59 58 2
a 59 89 7
a 89 59 7
a 59 60 5
a 60 59 5
a 60 90 5
a 90 60 5
a 61 91 2
a 91 61 2
a 61 62 6
a 62 61 6
a 62 92 1
a 92 62 1
a 62 63 6
a 63 62 6
a 63 93 3
a 93 63 3
a 63 64 6
a 64 63 6
a 64 94 1
a 94 64 1
a 64 65 8
a 65 64 8
a 65 66 6
a 66 65 6
a 66 96 10
a 96 66 10
a 66 67 8
a 67 66 8
a 67 97 8
a 97 67 8
a 67 68 7
a 68 67 7
a 68 98 1
a 98 68 1
a 68 69 7
a 69 68 7
a 69 99 9
a 99 69 9
a 69 70 9
a 70 69 9
a 70 100 9
a 100 70 9
a 70 71 4
a 71 70 4
a 71 72 1
a 72 71 1
a 72 102 9
a 102 72 9
a 72 73 2
a 73 72 2
a 73 103 7
a 103 73 7
a 73 74 5
a 74 73 5
a 74 104 7
a 104 74 7
a 74 75 2
a 75 74 2
a 75 105 5
a 105 75 5
a 78 108 7
a 108 78 7
a 78 79 1
a 79 78 1
a 79 109 5
a 109 79 5
a 79 80 5
a 80 79 5
a 80 110 7
a 110 80 7
a 80 81 1
a 81 80 1
a 81 111 6
a 111 81 6
a 81 82 9
a 82 81 9
a 82 112 4
a 112 82 4
a 82 83 7
a 83 82 7
a 83 113 5
a 113 83 5
a 83 84 6
a 84 83 6
a 84 114 3
a 114 84 3
a 84 85 6
a 85 84 6
a 85 115 8
a 115 85 8
a 85 86 3
a 86 85 3
a 86 116 2
a 116 86 2
a 86 87 5
a 87 86 5
a 87 117 1
a 117 87 1
a 87 88 7
a 88 87 7
a 88 118 6
a 118 88 6
a 88 89 1
a 89 88 1
a 89 119 7
a 119 89 7
a 89 90 4
a 90 89 4
a 90 120 8
a 120 90 8
a 91 121 8
a 121 91 8
a 91 92 1
a 92 91 1
a 92 122 4
a 122 92 4
a 92 93 7
a 93 92 7
a 93 123 3
a 123 93 3
a 93 94 4
a 94 93 4
a 94 124 5
a 124 94 5
a 96 126 4
a 126 96 4
a 96 97 5
a 97 96 5
a 97 127 3
a 127 97 3
a 97 98 1
a 98 97 1
a 98 128 5
a 128 98 5
a 98 99 7
a 99 98 7
a 99 129 2
a 129 99 2
a 99 100 10
a 100 99 10
a 100 130 6
a 130 100 6
a 102 132 7
a 132 102 7
a 102 103 1
a 103 102 1
a 103 133 7
a 133 103 7
a 103 104 8
a 104 103 8
a 104 134 4
a 134 104 4
a 104 105 5
a 105 104 5
a 105 135 5
a 135 105 5
a 107 137 4
a 137 107 4
a 107 108 5
a 108 107 5
a 108 138 2
a 138 108 2
a 108 109 5
a 109 108 5
a 109 139 3
a 139 109 3
a 109 110 1
a 110 109 1
a 110 140 9
a 140 110 9
a 110 111 9
a 111 110 9
a 111 141 1
a 141 111 1
a 111 112 6
a 112 111 6
a 112 142 4
a 142 112 4
a 112 113 9
a 113 112 9
a 113 143 7
a 143 113 7
a 113 114 4
a 114 113 4
a 114 144 10
a 144 114 10
a 114 115 9
a 115 114 9
a 115 145 9
a 145 115 9
a 115 116 10
a 116 115 10
a 116 146 3
a 146 116 3
a 116 117 6
a 117 116 6
a 117 147 7
a 147 117 7
a 117 118 7
a 118 117 7
a 118 148 9
a 148 118 9
a 118 119 5
a 119 118 5
a 119 149 5
a 149 119 5
a 119 120 4
a 120 119 4
a 120 150 4
a 150 120 4
a 121 151 9
a 151 121 9
a 121 122 5
a 122 121 5
a 122 152 5
a 152 122 5
a 122 123 10
a 123 122 10
a 123 153 10
a 153 123 10
a 123 124 7
a 124 123 7
a 124 125 8
a 125 124 8
a 125 155 5
a 155 125 5
a 125 126 3
a 126 125 3
a 126 127 5
a 127 126 5
a 127 157 10
a 157 127 10
a 127 128 7
a 128 127 7
a 128 158 6
a 158 128 6
a 128 129 1
a 129 128 1
a 129 130 5
a 130 129 5
a 130 160 9
a 160 130 9
a 130 131 8
a 131 130 8
a 131 161 8
a 161 131 8
a 131 132 7
a 132 131 7
a 132 162 6
a 162 132 6
a 132 133 7
a 133 132 7
a 133 163 2
a 163 133 2
a 133 134 3
a 134 133 3
a 134 164 6
a 164 134 6
a 134 135 3
a 135 134 3
a 135 136 4
a 136 135 4
a 136 166 1
a 166 136 1
a 136 137 2
a 137 136 2
a 137 167 4
a 167 137 4
a 137 138 2
a 138 137 2
a 138 168 6
a 168 138 6
a 138 139 10
a 139 138 10
a 139 140 2
a 140 139 2
a 140 170 7
a 170 140 7
a 140 141 6
a 141 140 6
a 141 171 4
a 171 141 4
a 141 142 4
a 142 141 4
a 142 172 8
a 172 142 8
a 142 143 8
a 143 142 8
a 143 173 7
a 173 143 7
a 143 144 10
a 144 143 10
a 144 174 1
a 174 144 1
a 144 145 2
a 145 144 2
a 145 146 4
a 146 145 4
a 146 176 2
a 176 146 2
a 146 147 10
a 147 146 10
a 147 148 10
a 148 147 10
a 148 178 3
a 178 148 3
a 148 149 2
a 149 148 2
a 149 179 4
a 179 149 4
a 149 150 7
a 150 149 7
a 150 180 4
a 180 150 4
a 151 181 8
a 181 151 8
a 151 152 4
a 152 151 4
a 152 182 7
a 182 152 7
a 152 153 6
a 153 152 6
a 153 183 10
a 183 153 10
a 155 185 6
a 185 155 6
a 157 187 3
a 187 157 3
a 157 158 2
a 158 157 2
a 158 188 1
a 188 158 1
a 160 190 10
a 190 160 10
a 160 161 1
a 161 160 1
a 161 162 7
a 162 161 7
a 162 192 2
a 192 162 2
a 162 163 5
a 163 162 5
a 163 193 1
a 193 163 1
a 163 164 2
a 164 163 2
a 164 194 6
a 194 164 6
a 166 167 10
a 167 166 10
a 167 197 4
a 197 167 4
a 167 168 6
a 168 167 6
a 168 198 10
a 198 168 10
a 170 200 7
a 200 170 7
a 170 171 1
a 171 170 1
a 171 201 4
a 201 171 4
a 171 172 7
a 172 171 7
a 172 202 6
a 202 172 6
a 172 173 1
a 173 172 1
a 173 203 5
a 203 173 5
a 173 174 4
a 174 173 4
a 174 204 9
a 204 174 9
a 176 206 9
a 206 176 9
a 178 208 2
a 208 178 2
a 178 179 9
a 179 178 9
a 179 209 6
a 209 179 6
a 179 180 5
a 180 179 5
a 180 210 3
a 210 180 3
a 181 211 4
a 211 181 4
a 181 182 9
a 182 181 9
a 182 212 6
a 212 182 6
a 182 183 8
a 183 182 8
a 183 213 4
a 213 183 4
a 183 184 4
a 184 183 4
a 184 214 10
a 214 184 10
a 184 185 10
a 185 184 10
a 185 186 5
a 186 185 5
a 186 216 5
a 216 186 5
a 186 187 3
a 187 186 3
a 187 217 2
a 217 187 2
a 187 188 8
a 188 187 8
a 188 218 3
a 218 188 3
a 188 189 7
a 189 188 7
a 189 219 9
a 219 189 9
a 189 190 8
a 190 189 8
a 190 220 3
a 220 190 3
a 192 222 7
a 222 192 7
a 192 193 1
a 193 192 1
a 193 223 8
a 223 193 8
a 193 194 5
a 194 193 5
a 194 224 8
a 224 194 8
a 194 195 7
a 195 194 7
a 195 225 4
a 225 195 4
a 197 227 7
a 227 197 7
a 197 198 6
a 198 197 6
a 198 199 6
a 199 198 6
a 199 229 4
a 229 199 4
a 199 200 10
a 200 199 10
a 200 230 5
a 230 200 5
a 200 201 1
a 201 200 1
a 201 231 10
a 231 201 10
a 201 202 8
a 202 201 8
a 202 232 7
a 232 202 7
a 202 203 1
a 203 202 1
a 203 204 4
a 204 203 4
a 204 234 10
a 234 204 10
a 204 205 7
a 205 204 7
a 205 235 8
a 235 205 8
a 205 206 6
a 206 205 6
a 206 236 5
a 236 206 5
a 206 207 1
a 207 206 1
a 207 237 6
a 237 207 6
a 207 208 4
a 208 207 4
a 208 238 10
a 238 208 10
a 208 209 9
a 209 208 9
a 209 239 2
a 239 209 2
a 209 210 3
a 210 209 3
a 210 240 4
a 240 210 4
a 211 241 4
a 241 211 4
a 211 212 6
a 212 211 6
a 212 242 4
a 242 212 4
a 212 213 6
a 213 212 6
a 213 243 10
a 243 213 10
a 213 214 10
a 214 213 10
a 214 244 8
a 244 214 8
a 216 246 8
a 246 216 8
a 216 217 6
a 217 216 6
a 217 247 4
a 247 217 4
a 217 218 7
a 218 217 7
a 218 248 7
a 248 218 7
a 218 219 2
a 219 218 2
a 219 249 9
a 249 219 9
a 219 220 2
a 220 219 2
a 220 250 9
a 250 220 9
a 220 221 2
a 221 220 2
a 221 251 4
a 251 221 4
a 221 222 9
a 222 221 9
a 222 252 3
a 252 222 3
a 222 223 7
a 223 222 7
a 223 253 2
a 253 223 2
a 223 224 2
a 224 223 2
a 224 254 5
a 254 224 5
a 224 225 9
a 225 224 9
a 225 226 1
a 226 225 1
a 226 256 2
a 256 226 2
a 226 227 1
a 227 226 1
a 227 257 1
a 257 227 1
a 229 259 6
a 259 229 6
a 229 230 9
a 230 229 9
a 230 260 5
a 260 230 5
a 230 231 7
a 231 230 7
a 231 261 8
a 261 231 8
a 231 232 3
a 232 231 3
a 234 264 2
a 264 234 2
a 234 235 4
a 235 234 4
a 235 236 8
a 236 235 8
a 236 266 6
a 266 236 6
a 236 237 6
a 237 236 6
a 237 267 4
a 267 237 4
a 237 238 5
a 238 237 5
a 238 268 5
a 268 238 5
a 238 239 9
a 239 238 9
a 239 269 4
a 269 239 4
a 239 240 8
a 240 239 8
a 240 270 6
a 270 240 6
a 241 271 3
a 271 241 3
a 241 242 5
a 242 241 5
a 242 272 7
a 272 242 7
a 242 243 2
a 243 242 2
a 243 273 7
a 273 243 7
a 243 244 1
a 244 243 1
a 244 274 8
a 274 244 8
a 244 245 7
a 245 244 7
a 245 246 4
a 246 245 4
a 246 276 5
a 276 246 5
a 246 247 7
a 247 246 7
a 247 277 8
a 277 247 8
a 247 248 10
a 248 247 10
a 248 278 10
a 278 248 10
a 248 249 5
a 249 248 5
a 249 279 8
a 279 249 8
a 249 250 4
a 250 249 4
a 250 280 8
a 280 250 8
a 250 251 10
a 251 250 10
a 251 281 10
a 281 251 10
a 251 252 8
a 252 251 8
a 252 282 8
a 282 252 8
a 252 253 9
a 253 252 9
a 253 283 5
a 283 253 5
a 253 254 3
a 254 253 3
a 254 284 6
a 284 254 6
a 256 286 9
a 286 256 9
a 256 257 8
a 257 256 8
a 257 287 10
a 287 257 10
a 257 258 5
a 258 257 5
a 258 288 8
a 288 258 8
a 258 259 5
a 259 258 5
a 259 289 6
a 289 259 6
a 259 260 6
a 260 259 6
a 260 290 7
a 290 260 7
a 260 261 7
a 261 260 7
a 261 291 5
a 291 261 5
a 263 293 2
a 293 263 2
a 263 264 7
a 264 263 7
a 264 294 6
a 294 264 6
a 266 267 5
a 267 266 5
a 267 297 2
a 297 267 2
a 267 268 1
a 268 267 1
a 268 269 4
a 269 268 4
a 269 299 1
a 299 269 1
a 269 270 9
a 270 269 9
a 270 300 3
a 300 270 3
a 271 301 1
a 301 271 1
a 271 272 5
a 272 271 5
a 272 302 6
a 302 272 6
a 272 273 6
a 273 272 6
a 273 303 10
a 303 273 10
a 273 274 3
a 274 273 3
a 274 304 4
a 304 274 4
a 276 306 4
a 306 276 4
a 276 277 3
a 277 276 3
a 277 307 1
a 307 277 1
a 277 278 1
a 278 277 1
a 278 308 8
a 308 278 8
a 278 279 7
a 279 278 7
a 279 309 4
a 309 279 4
a 279 280 5
a 280 279 5
a 280 310 2
a 310 280 2
a 280 281 10
a 281 280 10
a 281 311 5
a 311 281 5
a 281 282 3
a 282 281 3
a 282 312 5
a 312 282 5
a 282 283 9
a 283 282 9
a 283 313 6
a 313 283 6
a 283 284 3
a 284 283 3
a 284 314 4
a 314 284 4
a 284 285 7
a 285 284 7
a 285 315 9
a 315 285 9
a 285 286 3
a 286 285 3
a 286 287 2
a 287 286 2
a 287 288 2
a 288 287 2
a 288 318 3
a 318 288 3
a 288 289 10
a 289 288 10
a 289 319 6
a 319 289 6
a 289 290 5
a 290 289 5
a 290 291 10
a 291 290 10
a 291 321 2
a 321 291 2
a 291 292 4
a 292 291 4
a 292 322 3
a 322 292 3
a 292 293 7
a 293 292 7
a 293 323 8
a 323 293 8
a 293 294 2
a 294 293 2
a 294 324 8
a 324 294 8
a 294 295 1
a 295 294 1
a 295 325 9
a 325 295 9
a 297 327 8
a 327 297 8
a 299 329 4
a 329 299 4
a 299 300 4
a 300 299 4
a 300 330 5
a 330 300 5
a 301 331 7
a 331 301 7
a 301 302 3
a 302 301 3
a 302 332 6
a 332 302 6
a 302 303 3
a 303 302 3
a 303 333 10
a 333 303 10
a 303 304 8
a 304 303 8
a 304 334 1
a 334 304 1
a 306 307 3
a 307 306 3
a 307 337 1
a 337 307 1
a 307 308 6
a 308 307 6
a 308 338 4
a 338 308 4
a 308 309 7
a 309 308 7
a 309 339 6
a 339 309 6
a 309 310 4
a 310 309 4
a 310 340 2
a 340 310 2
a 310 311 4
a 311 310 4
a 311 341 10
a 341 311 10
a 311 312 1
a 312 311 1
a 312 342 4
a 342 312 4
a 312 313 9
a 313 312 9
a 313 343 7
a 343 313 7
a 313 314 2
a 314 313 2
a 314 344 5
a 344 314 5
a 314 315 4
a 315 314 4
a 315 345 7
a 345 315 7
a 318 348 3
a 348 318 3
a 318 319 9
a 319 318 9
a 319 349 3
a 349 319 3
a 321 351 6
a 351 321 6
a 321 322 2
a 322 321 2
a 322 352 10
a 352 322 10
a 322 323 4
a 323 322 4
a 323 353 3
a 353 323 3
a 323 324 3
a 324 323 3
a 324 354 6
a 354 324 6
a 324 325 8
a 325 324 8
a 325 355 9
a 355 325 9
a 325 326 2
a 326 325 2
a 326 356 6
a 356 326 6
a 326 327 4
a 327 326 4
a 327 357 8
a 357 327 8
a 327 328 1
a 328 327 1
a 328 358 1
a 358 328 1
a 328 329 10
a 329 328 10
a 329 359 1
a 359 329 1
a 329 330 8
a 330 329 8
a 330 360 6
a 360 330 6
a 331 361 9
a 361 331 9
a 331 332 9
a 332 331 9
a 332 362 7
a 362 332 7
a 332 333 8
a 333 332 8
a 333 363 9
a 363 333 9
a 333 334 6
a 334 333 6
a 334 364 2
a 364 334 2
a 334 335 4
a 335 334 4
a 335 365 7
a 365 335 7
a 337 367 8
a 367 337 8
a 337 338 5
a 338 337 5
a 338 368 5
a 368 338 5
a 338 339 7
a 339 338 7
a 339 369 6
a 369 339 6
a 339 340 8
a 340 339 8
a 340 341 1
a 341 340 1
a 341 371 6
a 371 341 6
a 341 342 5
a 342 341 5
a 342 372 4
a 372 342 4
a 342 343 8
a 343 342 8
a 343 373 3
a 373 343 3
a 343 344 7
a 344 343 7
a 344 345 2
a 345 344 2
a 345 375 3
a 375 345 3
a 345 346 5
a 346 345 5
a 346 376 7
a 376 346 7
a 346 347 8
a 347 346 8
a 347 377 7
a 377 347 7
a 347 348 5
a 348 347 5
a 348 378 9
a 378 348 9
a 348 349 7
a 349 348 7
a 349 350 3
a 350 349 3
a 350 380 6
a 380 350 6
a 350 351 6
a 351 350 6
a 351 381 9
a 381 351 9
a 351 352 9
a 352 351 9
a 352 382 5
a 382 352 5
a 352 353 7
a 353 352 7
a 353 383 3
a 383 353 3
a 353 354 4
a 354 353 4
a 354 384 4
a 384 354 4
a 354 355 7
a 355 354 7
a 355 385 3
a 385 355 3
a 355 356 4
a 356 355 4
a 356 357 5
a 357 356 5
a 357 358 4
a 358 357 4
a 358 388 3
a 388 358 3
a 358 359 7
a 359 358 7
a 359 389 5
a 389 359 5
a 359 360 6
a 360 359 6
a 360 390 6
a 390 360 6
a 361 391 7
a 391 361 7
a 361 362 8
a 362 361 8
a 362 392 8
a 392 362 8
a 362 363 7
a 363 362 7
a 363 393 10
a 393 363 10
a 363 364 6
a 364 363 6
a 364 394 7
a 394 364 7
a 364 365 2
a 365 364 2
a 365 395 4
a 395 365 4
a 365 366 7
a 366 365 7
a 366 396 2
a 396 366 2
a 366 367 3
a 367 366 3
a 367 397 3
a 397 367 3
a 367 368 1
a 368 367 1
a 368 398 8
a 398 368 8
a 368 369 2
a 369 368 2
a 369 399 7
a 399 369 7
a 371 401 4
a 401 371 4
a 371 372 4
a 372 371 4
a 372 373 9
a 373 372 9
a 373 403 10
a 403 373 10
a 375 405 4
a 405 375 4
a 375 376 7
a 376 375 7
a 376 406 3
a 406 376 3
a 376 377 4
a 377 376 4
a 377 407 10
a 407 377 10
a 377 378 3
a 378 377 3
a 378 408 3
a 408 378 3
a 380 410 6
a 410 380 6
a 380 381 1
a 381 380 1
a 381 411 9
a 411 381 9
a 381 382 4
a 382 381 4
a 382 412 4
a 412 382 4
a 382 383 7
a 383 382 7
a 383 413 7
a 413 383 7
a 383 384 3
a 384 383 3
a 384 414 6
a 414 384 6
a 384 385 8
a 385 384 8
a 385 415 6
a 415 385 6
a 388 418 4
a 418 388 4
a 388 389 7
a 389 388 7
a 389 419 10
a 419 389 10
a 389 390 6
a 390 389 6
a 390 420 7
a 420 390 7
a 391 421 7
a 421 391 7
a 391 392 10
a 392 391 10
a 392 422 9
a 422 392 9
a 392 393 6
a 393 392 6
a 393 423 5
a 423 393 5
a 393 394 9
a 394 393 9
a 394 424 10
a 424 394 10
a 394 395 6
a 395 394 6
a 395 425 4
a 425 395 4
a 395 396 7
a 396 395 7
a 396 426 4
a 426 396 4
a 396 397 7
a 397 396 7
a 397 427 10
a 427 397 10
a 397 398 4
a 398 397 4
a 398 428 9
a 428 398 9
a 398 399 2
a 399 398 2
a 399 429 10
a 429 399 10
a 399 400 1
a 400 399 1
a 400 430 5
a 430 400 5
a 400 401 6
a 401 400 6
a 401 431 1
a 431 401 1
a 403 433 5
a 433 403 5
a 403 404 6
a 404 403 6
a 404 434 10
a 434 404 10
a 404 405 5
a 405 404 5
a 405 435 7
a 435 405 7
a 405 406 7
a 406 405 7
a 406 436 9
a 436 406 9
a 406 407 8
a 407 406 8
a 407 437 4
a 437 407 4
a 407 408 5
a 408 407 5
a 408 438 6
a 438 408 6
a 408 409 3
a 409 408 3
a 409 439 5
a 439 409 5
a 409 410 7
a 410 409 7
a 410 440 6
a 440 410 6
a 410 411 7
a 411 410 7
a 411 441 2
a 441 411 2
a 411 412 3
a 412 411 3
a 412 413 2
a 413 412 2
a 413 414 10
a 414 413 10
a 414 444 3
a 444 414 3
a 414 415 7
a 415 414 7
a 415 445 10
a 445 415 10
a 415 416 5
a 416 415 5
a 416 446 6
a 446 416 6
a 416 417 9
a 417 416 9
a 417 447 4
a 447 417 4
a 417 418 8
a 418 417 8
a 418 448 10
a 448 418 10
a 418 419 10
a 419 418 10
a 419 449 7
a 449 419 7
a 419 420 4
a 420 419 4
a 420 450 8
a 450 420 8
a 421 451 9
a 451 421 9
a 421 422 1
a 422 421 1
a 422 452 2
a 452 422 2
a 422 423 1
a 423 422 1
a 423 424 5
a 424 423 5
a 424 454 8
a 454 424 8
a 424 425 4
a 425 424 4
a 425 455 1
a 455 425 1
a 425 426 10
a 426 425 10
a 426 456 4
a 456 426 4
a 426 427 8
a 427 426 8
a 427 457 10
a 457 427 10
a 427 428 5
a 428 427 5
a 428 458 4
a 458 428 4
a 428 429 5
a 429 428 5
a 429 459 7
a 459 429 7
a 429 430 2
a 430 429 2
a 430 460 2
a 460 430 2
a 430 431 3
a 431 430 3
a 431 461 2
a 461 431 2
a 431 432 2
a 432 431 2
a 432 462 4
a 462 432 4
a 432 433 10
a 433 432 10
a 433 463 2
a 463 433 2
a 433 434 9
a 434 433 9
a 434 435 7
a 435 434 7
a 435 465 9
a 465 435 9
a 435 436 8
a 436 435 8
a 436 466 3
a 466 436 3
a 436 437 7
a 437 436 7
a 437 438 3
a 438 437 3
a 438 468 2
a 468 438 2
a 438 439 10
a 439 438 10
a 439 469 1
a 469 439 1
a 439 440 7
a 440 439 7
a 440 470 4
a 470 440 4
a 440 441 7
a 441 440 7
a 444 474 2
a 474 444 2
a 444 445 3
a 445 444 3
a 445 475 3
a 475 445 3
a 445 446 4
a 446 445 4
a 446 476 5
a 476 446 5
a 446 447 6
a 447 446 6
a 447 477 1
a 477 447 1
a 447 448 1
a 448 447 1
a 448 478 9
a 478 448 9
a 448 449 8
a 449 448 8
a 449 479 8
a 479 449 8
a 449 450 1
a 450 449 1
a 450 480 1
a 480 450 1
a 451 481 8
a 481 451 8
a 451 452 10
a 452 451 10
a 452 482 6
a 482 452 6
a 454 484 6
a 484 454 6
a 454 455 10
a 455 454 10
a 455 485 10
a 485 455 10
a 455 456 2
a 456 455 2
a 456 486 3
a 486 456 3
a 456 457 2
a 457 456 2
a 457 458 2
a 458 457 2
a 458 488 2
a 488 458 2
a 458 459 7
a 459 458 7
a 459 489 1
a 489 459 1
a 459 460 2
a 460 459 2
a 460 490 10
a 490 460 10
a 460 461 2
a 461 460 2
a 461 491 5
a 491 461 5
a 461 462 3
a 462 461 3
a 462 492 4
a 492 462 4
a 462 463 5
a 463 462 5
a 463 493 9
a 493 463 9
a 465 495 3
a 495 465 3
a 465 466 10
a 466 465 10
a 466 496 9
a 496 466 9
a 468 498 5
a 498 468 5
a 468 469 10
a 469 468 10
a 469 499 7
a 499 469 7
a 469 470 1
a 470 469 1
a 470 500 7
a 500 470 7
a 473 503 2
a 503 473 2
a 473 474 10
a 474 473 10
a 474 504 8
a 504 474 8
a 474 475 4
a 475 474 4
a 475 505 8
a 505 475 8
a 475 476 1
a 476 475 1
a 476 506 9
a 506 476 9
a 476 477 10
a 477 476 10
a 477 507 1
a 507 477 1
a 477 478 5
a 478 477 5
a 478 508 9
a 508 478 9
a 478 479 10
a 479 478 10
a 479 509 5
a 509 479 5
a 479 480 8
a 480 479 8
a 480 510 6
a 510 480 6
a 481 511 3
a 511 481 3
a 481 482 6
a 482 481 6
a 482 512 2
a 512 482 2
a 482 483 2
a 483 482 2
a 483 513 10
a 513 483 10
a 483 484 4
a 484 483 4
a 484 514 3
a 514 484 3
a 484 485 3
a 485 484 3
a 485 515 6
a 515 485 6
a 485 486 6
a 486 485 6
a 486 516 3
a 516 486 3
a 488 518 1
a 518 488 1
a 488 489 1
a 489 488 1
a 489 519 5
a 519 489 5
a 489 490 4
a 490 489 4
a 490 491 5
a 491 490 5
a 491 521 1
a 521 491 1
a 491 492 8
a 492 491 8
a 492 522 9
a 522 492 9
a 492 493 10
a 493 492 10
a 493 523 10
a 523 493 10
a 495 525 4
a 525 495 4
a 495 496 4
a 496 495 4
a 496 526 3
a 526 496 3
a 496 497 5
a 497 496 5
a 497 527 2
a 527 497 2
a 497 498 9
a 498 497 9
a 498 528 1
a 528 498 1
a 498 499 8
a 499 498 8
a 499 529 9
a 529 499 9
a 499 500 8
a 500 499 8
a 500 501 1
a 501 500 1
a 501 531 10
a 531 501 10
a 501 502 6
a 502 501 6
a 502 532 1
a 532 502 1
a 502 503 1
a 503 502 1
a 503 533 2
a 533 503 2
a 503 504 4
a 504 503 4
a 504 534 9
a 534 504 9
a 504 505 10
a 505 504 10
a 505 535 6
a 535 505 6
a 505 506 10
a 506 505 10
a 506 507 6
a 507 506 6
a 507 537 6
a 537 507 6
a 507 508 8
a 508 507 8
a 508 538 9
a 538 508 9
a 508 509 7
a 509 508 7
a 509 539 4
a 539 509 4
a 509 510 4
a 510 509 4
a 510 540 1
a 540 510 1
a 511 541 3
a 541 511 3
a 511 512 3
a 512 511 3
a 512 513 6
a 513 512 6
a 513 543 1
a 543 513 1
a 513 514 9
a 514 513 9
a 514 544 1
a 544 514 1
a 514 515 10
a 515 514 10
a 515 545 6
a 545 515 6
a 515 516 2
a 516 515 2
a 516 546 5
a 546 516 5
a 516 517 3
a 517 516 3
a 517 547 10
a 547 517 10
a 517 518 4
a 518 517 4
a 518 548 2
a 548 518 2
a 518 519 8
a 519 518 8
a 519 549 2
a 549 519 2
a 521 551 1
a 551 521 1
a 521 522 7
a 522 521 7
a 522 552 2
a 552 522 2
a 522 523 7
a 523 522 7
a 523 553 8
a 553 523 8
a 523 524 5
a 524 523 5
a 524 554 2
a 554 524 2
a 524 525 7
a 525 524 7
a 525 555 7
a 555 525 7
a 525 526 4
a 526 525 4
a 526 556 2
a 556 526 2
a 526 527 1
a 527 526 1
a 527 557 3
a 557 527 3
a 527 528 1
a 528 527 1
a 528 558 2
a 558 528 2
a 528 529 2
a 529 528 2
a 529 559 5
a 559 529 5
a 531 561 4
a 561 531 4
a 531 532 4
a 532 531 4
a 532 562 1
a 562 532 1
a 532 533 6
a 533 532 6
a 533 534 6
a 534 533 6
a 534 564 3
a 564 534 3
a 534 535 1
a 535 534 1
a 535 565 5
a 565 535 5
a 537 538 10
a 538 537 10
a 538 568 4
a 568 538 4
a 538 539 8
a 539 538 8
a 539 569 10
a 569 539 10
a 539 540 2
a 540 539 2
a 540 570 1
a 570 540 1
a 543 544 3
a 544 543 3
a 544 574 5
a 574 544 5
a 544 545 3
a 545 544 3
a 545 575 10
a 575 545 10
a 545 546 9
a 546 545 9
a 546 576 8
a 576 546 8
a 546 547 9
a 547 546 9
a 547 577 9
a 577 547 9
a 547 548 1
a 548 547 1
a 548 578 9
a 578 548 9
a 548 549 1
a 549 548 1
a 549 579 10
a 579 549 10
a 549 550 8
a 550 549 8
a 550 580 2
a 580 550 2
a 550 551 7
a 551 550 7
a 551 581 9
a 581 551 9
a 551 552 2
a 552 551 2
a 552 582 3
a 582 552 3
a 552 553 8
a 553 552 8
a 553 583 1
a 583 553 1
a 553 554 10
a 554 553 10
a 554 584 6
a 584 554 6
a 554 555 4
a 555 554 4
a 555 556 7
a 556 555 7
a 556 586 3
a 586 556 3
a 556 557 7
a 557 556 7
a 557 587 5
a 587 557 5
a 557 558 2
a 558 557 2
a 558 588 6
a 588 558 6
a 558 559 8
a 559 558 8
a 559 589 9
a 589 559 9
a 561 591 4
a 591 561 4
a 561 562 6
a 562 561 6
a 562 592 10
a 592 562 10
a 564 594 2
a 594 564 2
a 564 565 2
a 565 564 2
a 565 595 6
a 595 565 6
a 565 566 1
a 566 565 1
a 566 596 3
a 596 566 3
a 568 569 1
a 569 568 1
a 569 599 10
a 599 569 10
a 569 570 3
a 570 569 3
a 570 600 1
a 600 570 1
a 574 604 8
a 604 574 8
a 574 575 9
a 575 574 9
a 575 605 3
a 605 575 3
a 575 576 6
a 576 575 6
a 576 606 3
a 606 576 3
a 576 577 5
a 577 576 5
a 577 607 10
a 607 577 10
a 577 578 10
a 578 577 10
a 578 608 5
a 608 578 5
a 578 579 2
a 579 578 2
a 579 609 10
a 609 579 10
a 579 580 5
a 580 579 5
a 580 581 1
a 581 580 1
a 581 611 4
a 611 581 4
a 581 582 5
a 582 581 5
a 582 612 4
a 612 582 4
a 582 583 7
a 583 582 7
a 583 613 5
a 613 583 5
a 583 584 3
a 584 583 3
a 584 614 5
a 614 584 5
a 586 616 8
a 616 586 8
a 586 587 9
a 587 586 9
a 587 617 9
a 617 587 9
a 587 588 5
a 588 587 5
a 588 618 2
a 618 588 2
a 588 589 3
a 589 588 3
a 591 621 7
a 621 591 7
a 591 592 1
a 592 591 1
a 592 622 4
a 622 592 4
a 594 624 5
a 624 594 5
a 594 595 8
a 595 594 8
a 595 625 2
a 625 595 2
a 595 596 2
a 596 595 2
a 596 626 8
a 626 596 8
a 596 597 7
a 597 596 7
a 597 627 2
a 627 597 2
a 599 629 10
a 629 599 10
a 599 600 9
a 600 599 9
a 600 630 9
a 630 600 9
a 601 631 7
a 631 601 7
a 603 633 4
a 633 603 4
a 603 604 8
a 604 603 8
a 604 634 3
a 634 604 3
a 604 605 6
a 605 604 6
a 605 635 5
a 635 605 5
a 605 606 3
a 606 605 3
a 606 636 3
a 636 606 3
a 606 607 5
a 607 606 5
a 607 637 4
a 637 607 4
a 607 608 9
a 608 607 9
a 608 638 9
a 638 608 9
a 608 609 4
a 609 608 4
a 609 639 4
a 639 609 4
a 611 641 1
a 641 611 1
a 611 612 10
a 612 611 10
a 612 642 9
a 642 612 9
a 612 613 5
a 613 612 5
a 613 643 2
a 643 613 2
a 613 614 9
a 614 613 9
a 614 644 6
a 644 614 6
a 616 646 1
a 646 616 1
a 616 617 1
a 617 616 1
a 617 647 10
a 647 617 10
a 617 618 9
a 618 617 9
a 618 648 1
a 648 618 1
a 620 650 10
a 650 620 10
a 620 621 6
a 621 620 6
a 621 651 4
a 651 621 4
a 621 622 4
a 622 621 4
a 622 652 10
a 652 622 10
a 622 623 3
a 623 622 3
a 623 653 9
a 653 623 9
a 623 624 10
a 624 623 10
a 624 625 1
a 625 624 1
a 625 655 1
a 655 625 1
a 625 626 1
a 626 625 1
a 626 656 5
a 656 626 5
a 626 627 8
a 627 626 8
a 627 657 6
a 657 627 6
a 627 628 3
a 628 627 3
a 628 658 6
a 658 628 6
a 628 629 7
a 629 628 7
a 629 659 6
a 659 629 6
a 629 630 2
a 630 629 2
a 630 660 8
a 660 630 8
a 631 661 10
a 661 631 10
a 631 632 8
a 632 631 8
a 632 662 5
a 662 632 5
a 632 633 9
a 633 632 9
a 633 663 10
a 663 633 10
a 633 634 2
a 634 633 2
a 634 664 7
a 664 634 7
a 634 635 2
a 635 634 2
a 635 665 10
a 665 635 10
a 635 636 1
a 636 635 1
a 636 666 2
a 666 636 2
a 636 637 1
a 637 636 1
a 637 667 4
a 667 637 4
a 637 638 4
a 638 637 4
a 638 668 7
a 668 638 7
a 638 639 7
a 639 638 7
a 639 669 8
a 669 639 8
a 641 671 2
a 671 641 2
a 641 642 4
a 642 641 4
a 642 672 4
a 672 642 4
a 642 643 2
a 643 642 2
a 643 644 1
a 644 643 1
a 644 674 3
a 674 644 3
a 644 645 9
a 645 644 9
a 645 675 8
a 675 645 8
a 645 646 1
a 646 645 1
a 646 676 2
a 676 646 2
a 646 647 3
a 647 646 3
a 647 677 10
a 677 647 10
a 647 648 4
a 648 647 4
a 648 678 7
a 678 648 7
a 648 649 8
a 649 648 8
a 649 679 6
a 679 649 6
a 649 650 9
a 650 649 9
a 650 680 8
a 680 650 8
a 650 651 4
a 651 650 4
a 651 681 2
a 681 651 2
a 651 652 10
a 652 651 10
a 652 682 10
a 682 652 10
a 652 653 5
a 653 652 5
a 653 683 3
a 683 653 3
a 655 685 7
a 685 655 7
a 655 656 4
a 656 655 4
a 656 686 5
a 686 656 5
a 656 657 2
a 657 656 2
a 657 687 9
a 687 657 9
a 657 658 5
a 658 657 5
a 658 688 6
a 688 658 6
a 658 659 5
a 659 658 5
a 659 660 7
a 660 659 7
a 661 691 4
a 691 661 4
a 661 662 5
a 662 661 5
a 662 692 5
a 692 662 5
a 662 663 7
a 663 662 7
a 663 693 1
a 693 663 1
a 663 664 9
a 664 663 9
a 664 694 2
a 694 664 2
a 664 665 8
a 665 664 8
a 665 695 8
a 695 665 8
a 665 666 4
a 666 665 4
a 666 696 3
a 696 666 3
a 666 667 8
a 667 666 8
a 667 697 4
a 697 667 4
a 667 668 2
a 668 667 2
a 668 698 10
a 698 668 10
a 668 669 9
a 669 668 9
a 669 699 4
a 699 669 4
a 669 670 8
a 670 669 8
a 670 700 1
a 700 670 1
a 670 671 8
a 671 670 8
a 671 701 9
a 701 671 9
a 671 672 2
a 672 671 2
a 672 702 3
a 702 672 3
a 674 704 4
a 704 674 4
a 674 675 4
a 675 674 4
a 675 705 5
a 705 675 5
a 675 676 1
a 676 675 1
a 676 706 3
a 706 676 3
a 676 677 7
a 677 676 7
a 677 707 8
a 707 677 8
a 677 678 4
a 678 677 4
a 678 708 10
a 708 678 10
a 678 679 7
a 679 678 7
a 679 709 1
a 709 679 1
a 679 680 6
a 680 679 6
a 680 710 2
a 710 680 2
a 680 681 7
a 681 680 7
a 681 711 7
a 711 681 7
a 681 682 6
a 682 681 6
a 682 712 9
a 712 682 9
a 682 683 2
a 683 682 2
a 683 684 7
a 684 683 7
a 684 714 3
a 714 684 3
a 684 685 10
a 685 684 10
a 685 715 2
a 715 685 2
a 685 686 3
a 686 685 3
a 686 716 9
a 716 686 9
a 686 687 10
a 687 686 10
a 687 717 3
a 717 687 3
a 687 688 3
a 688 687 3
a 688 718 7
a 718 688 7
a 691 721 5
a 721 691 5
a 691 692 5
a 692 691 5
a 692 722 9
a 722 692 9
a 692 693 1
a 693 692 1
a 693 723 6
a 723 693 6
a 693 694 6
a 694 693 6
a 694 724 5
a 724 694 5
a 694 695 2
a 695 694 2
a 695 725 1
a 725 695 1
a 695 696 9
a 696 695 9
a 696 726 1
a 726 696 1
a 696 697 7
a 697 696 7
a 697 727 9
a 727 697 9
a 697 698 7
a 698 697 7
a 698 728 9
a 728 698 9
a 698 699 6
a 699 698 6
a 699 729 10
a 729 699 10
a 699 700 1
a 700 699 1
a 700 730 6
a 730 700 6
a 700 701 1
a 701 700 1
a 701 731 6
a 731 701 6
a 701 702 9
a 702 701 9
a 702 732 6
a 732 702 6
a 702 703 3
a 703 702 3
a 703 733 1
a 733 703 1
a 703 704 10
a 704 703 10
a 704 734 6
a 734 704 6
a 704 705 1
a 705 704 1
a 705 735 7
a 735 705 7
a 705 706 4
a 706 705 4
a 706 736 10
a 736 706 10
a 706 707 8
a 707 706 8
a 707 737 3
a 737 707 3
a 707 708 7
a 708 707 7
a 708 738 6
a 738 708 6
a 708 709 8
a 709 708 8
a 709 710 3
a 710 709 3
a 710 740 5
a 740 710 5
a 710 711 3
a 711 710 3
a 711 741 3
a 741 711 3
a 711 712 9
a 712 711 9
a 712 742 8
a 742 712 8
a 714 744 3
a 744 714 3
a 714 715 1
a 715 714 1
a 715 745 3
a 745 715 3
a 715 716 1
a 716 715 1
a 716 717 6
a 717 716 6
a 717 747 7
a 747 717 7
a 717 718 9
a 718 717 9
a 718 748 5
a 748 718 5
a 718 719 3
a 719 718 3
a 719 749 4
a 749 719 4
a 719 720 10
a 720 719 10
a 720 750 10
a 750 720 10
a 721 751 9
a 751 721 9
a 721 722 3
a 722 721 3
a 722 752 9
a 752 722 9
a 722 723 1
a 723 722 1
a 723 753 1
a 753 723 1
a 723 724 10
a 724 723 10
a 724 754 6
a 754 724 6
a 724 725 5
a 725 724 5
a 725 755 6
a 755 725 6
a 725 726 7
a 726 725 7
a 726 756 3
a 756 726 3
a 726 727 4
a 727 726 4
a 727 757 6
a 757 727 6
a 727 728 1
a 728 727 1
a 728 758 7
a 758 728 7
a 728 729 1
a 729 728 1
a 729 759 8
a 759 729 8
a 729 730 2
a 730 729 2
a 730 760 2
a 760 730 2
a 730 731 5
a 731 730 5
a 731 761 5
a 761 731 5
a 731 732 5
a 732 731 5
a 732 762 7
a 762 732 7
a 732 733 1
a 733 732 1
a 733 763 6
a 763 733 6
a 733 734 5
a 734 733 5
a 734 764 3
a 764 734 3
a 734 735 4
a 735 734 4
a 735 765 3
a 765 735 3
a 735 736 9
a 736 735 9
a 736 766 10
a 766 736 10
a 736 737 3
a 737 736 3
a 737 767 10
a 767 737 10
a 737 738 4
a 738 737 4
a 738 768 1
a 768 738 1
a 740 770 3
a 770 740 3
a 740 741 1
a 741 740 1
a 741 771 7
a 771 741 7
a 741 742 1
a 742 741 1
a 742 743 6
a 743 742 6
a 743 744 6
a 744 743 6
a 744 774 8
a 774 744 8
a 744 745 9
a 745 744 9
a 745 775 10
a 775 745 10
a 747 777 8
a 777 747 8
a 747 748 1
a 748 747 1
a 748 778 3
a 778 748 3
a 748 749 10
a 749 748 10
a 749 779 8
a 779 749 8
a 749 750 7
a 750 749 7
a 750 780 2
a 780 750 2
a 751 781 1
a 781 751 1
a 751 752 2
a 752 751 2
a 752 782 10
a 782 752 10
a 752 753 3
a 753 752 3
a 753 783 2
a 783 753 2
a 753 754 10
a 754 753 10
a 754 784 10
a 784 754 10
a 754 755 2
a 755 754 2
a 755 785 4
a 785 755 4
a 755 756 3
a 756 755 3
a 756 786 5
a 786 756 5
a 756 757 3
a 757 756 3
a 757 787 6
a 787 757 6
a 757 758 8
a 758 757 8
a 758 759 1
a 759 758 1
a 759 789 6
a 789 759 6
a 759 760 2
a 760 759 2
a 760 790 7
a 790 760 7
a 760 761 8
a 761 760 8
a 761 791 7
a 791 761 7
a 761 762 3
a 762 761 3
a 762 792 4
a 792 762 4
a 762 763 5
a 763 762 5
a 763 793 6
a 793 763 6
a 763 764 7
a 764 763 7
a 764 794 10
a 794 764 10
a 764 765 5
a 765 764 5
a 765 795 1
a 795 765 1
a 765 766 5
a 766 765 5
a 766 796 7
a 796 766 7
a 766 767 2
a 767 766 2
a 767 797 2
a 797 767 2
a 767 768 10
a 768 767 10
a 768 798 5
a 798 768 5
a 768 769 10
a 769 768 10
a 769 799 1
a 799 769 1
a 769 770 6
a 770 769 6
a 770 771 9
a 771 770 9
a 771 801 6
a 801 771 6
a 774 804 4
a 804 774 4
a 774 775 4
a 775 774 4
a 775 805 10
a 805 775 10
a 775 776 10
a 776 775 10
a 776 806 10
a 806 776 10
a 776 777 3
a 777 776 3
a 777 807 4
a 807 777 4
a 777 778 1
a 778 777 1
a 778 808 9
a 808 778 9
a 778 779 8
a 779 778 8
a 779 809 9
a 809 779 9
a 779 780 10
a 780 779 10
a 781 811 9
a 811 781 9
a 781 782 6
a 782 781 6
a 782 812 6
a 812 782 6
a 782 783 5
a 783 782 5
a 783 813 1
a 813 783 1
a 783 784 2
a 784 783 2
a 784 785 1
a 785 784 1
a 785 815 10
a 815 785 10
a 785 786 6
a 786 785 6
a 786 816 7
a 816 786 7
a 786 787 1
a 787 786 1
a 787 817 4
a 817 787 4
a 789 819 8
a 819 789 8
a 789 790 1
a 790 789 1
a 790 820 3
a 820 790 3
a 790 791 5
a 791 790 5
a 791 821 5
a 821 791 5
a 791 792 8
a 792 791 8
a 792 822 7
a 822 792 7
a 792 793 6
a 793 792 6
a 793 794 8
a 794 793 8
a 794 824 6
a 824 794 6
a 794 795 8
a 795 794 8
a 795 796 10
a 796 795 10
a 796 826 4
a 826 796 4
a 796 797 10
a 797 796 10
a 797 827 4
a 827 797 4
a 797 798 2
a 798 797 2
a 798 828 5
a 828 798 5
a 798 799 10
a 799 798 10
a 799 829 5
a 829 799 5
a 801 802 10
a 802 801 10
a 802 832 1
a 832 802 1
a 802 803 5
a 803 802 5
a 803 833 8
a 833 803 8
a 803 804 4
a 804 803 4
a 804 834 5
a 834 804 5
a 804 805 8
a 805 804 8
a 805 835 2
a 835 805 2
a 805 806 8
a 806 805 8
a 806 836 7
a 836 806 7
a 806 807 10
a 807 806 10
a 807 837 7
a 837 807 7
a 807 808 1
a 808 807 1
a 808 838 8
a 838 808 8
a 808 809 9
a 809 808 9
a 809 839 3
a 839 809 3
a 811 841 5
a 841 811 5
a 811 812 8
a 812 811 8
a 812 842 8
a 842 812 8
a 812 813 10
a 813 812 10
a 815 845 10
a 845 815 10
a 815 816 5
a 816 815 5
a 816 846 1
a 846 816 1
a 816 817 8
a 817 816 8
a 817 847 3
a 847 817 3
a 817 818 4
a 818 817 4
a 818 848 8
a 848 818 8
a 818 819 3
a 819 818 3
a 819 849 7
a 849 819 7
a 819 820 10
a 820 819 10
a 820 821 8
a 821 820 8
a 821 851 8
a 851 821 8
a 821 822 8
a 822 821 8
a 822 852 5
a 852 822 5
a 824 854 7
a 854 824 7
a 826 856 6
a 856 826 6
a 826 827 5
a 827 826 5
a 827 857 6
a 857 827 6
a 827 828 2
a 828 827 2
a 828 858 5
a 858 828 5
a 828 829 6
a 829 828 6
a 829 859 9
a 859 829 9
a 829 830 1
a 830 829 1
a 830 860 10
a 860 830 10
a 832 862 5
a 862 832 5
a 832 833 5
a 833 832 5
a 833 863 8
a 863 833 8
a 833 834 4
a 834 833 4
a 834 864 8
a 864 834 8
a 834 835 7
a 835 834 7
a 835 865 2
a 865 835 2
a 835 836 8
a 836 835 8
a 836 866 7
a 866 836 7
a 836 837 9
a 837 836 9
a 837 867 2
a 867 837 2
a 837 838 1
a 838 837 1
a 838 868 1
a 868 838 1
a 838 839 8
a 839 838 8
a 839 869 4
a 869 839 4
a 839 840 4
a 840 839 4
a 840 870 1
a 870 840 1
a 841 871 5
a 871 841 5
a 841 842 3
a 842 841 3
a 842 872 10
a 872 842 10
a 844 874 1
a 874 844 1
a 844 845 7
a 845 844 7
a 845 846 5
a 846 845 5
a 846 876 3
a 876 846 3
a 846 847 10
a 847 846 10
a 847 877 7
a 877 847 7
a 847 848 10
a 848 847 10
a 848 878 1
a 878 848 1
a 848 849 6
a 849 848 6
a 849 879 8
a 879 849 8
a 851 881 3
a 881 851 3
a 851 852 9
a 852 851 9
a 854 884 10
a 884 854 10
a 856 886 4
a 886 856 4
a 856 857 8
a 857 856 8
a 857 887 10
a 887 857 10
a 857 858 3
a 858 857 3
a 858 888 6
a 888 858 6
a 858 859 1
a 859 858 1
a 859 889 7
a 889 859 7
a 859 860 9
a 860 859 9
a 860 890 5
a 890 860 5
a 860 861 3
a 861 860 3
a 861 891 4
a 891 861 4
a 861 862 9
a 862 861 9
a 862 892 6
a 892 862 6
a 862 863 9
a 863 862 9
a 863 893 7
a 893 863 7
a 863 864 8
a 864 863 8
a 864 894 10
a 894 864 10
a 864 865 5
a 865 864 5
a 865 895 5
a 895 865 5
a 865 866 7
a 866 865 7
a 866 896 5
a 896 866 5
a 866 867 2
a 867 866 2
a 867 868 10
a 868 867 10
a 868 898 7
a 898 868 7
a 868 869 2
a 869 868 2
a 869 899 7
a 899 869 7
a 869 870 7
a 870 869 7
a 870 900 7
a 900 870 7
a 871 872 2
a 872 871 2
a 876 877 1
a 877 876 1
a 877 878 3
a 878 877 3
a 878 879 9
a 879 878 9
a 879 880 3
a 880 879 3
a 880 881 6
a 881 880 6
a 883 884 1
a 884 883 1
a 884 885 2
a 885 884 2
a 885 886 1
a 886 885 1
a 886 887 3
a 887 886 3
a 887 888 7
a 888 887 7
a 888 889 2
a 889 888 2
a 889 890 3
a 890 889 3
a 890 891 10
a 891 890 10
a 891 892 10
a 892 891 10
a 892 893 2
a 893 892 2
a 893 894 3
a 894 893 3
a 894 895 3
a 895 894 3
a 895 896 5
a 896 895 5
a 898 899 7
a 899 898 7
a 899 900 7
a 900 899 7
